32	0

0	1	2
7	1	3
4	1	4
3	1	5
10	1	6
9	1	7
9	1	8
10	1	9
6	1	10
4	1	11
6	1	12
7	1	13
4	1	14
8	1	15
5	1	16
9	1	17
2	1	18
2	1	19
2	1	20
4	1	21
9	1	22
4	1	23
8	1	24
7	1	25
10	1	26
8	1	27
4	1	28
6	1	29
2	1	30
2	1	31
9	1	32
0	0
